results/filo2/x-long/X-n157-k13.vrp_seed-3.vrp.sol
Route #1: 12 60 109 114 29 58 39 10 134 52 107 18
Route #2: 17 67 4 35 6 115 55 95 105 152 56 61
Route #3: 101 27 44 124 130 104 127 145 46 19 116 37
Route #4: 23 31 140 85 144 53 123 98 154 50 133 131
Route #5: 38 122 69 99 93 36 68 20 75 118 147 15
Route #6: 143 32 42 3 106 73 135 21 121 54 110 41
Route #7: 129 91 100 51 90 83 45 77 11 82 113 151
Route #8: 92 137 7 28 66 94 86 111 132 102 96 59
Route #9: 148 13 63 64 141 43 24 156 150 8 149 71
Route #10: 16 103 65 87 97 62 142 128 26 120 14 49
Route #11: 34 138 25 155 22 30 74 79 84 33 48 72
Route #12: 47 5 153 76 136 112 89 81 119 2 57 88
Route #13: 126 1 117 9 108 40 80 146 78 125 139 70
Cost 16876.000000